nApps = 234
nRes = 9
nActs = 486
nNetworks = 6

assignmentToResources = [1,2,2,1,3,2,3,1,2,1,3,3,2,3,1,2,2,3,2,1,3,1,3,1,3,1,2,1,1,3,1,3,3,2,3,2,1,2,1,2,1,2,3,1,2,1,1,1,1,2,1,3,1,1,2,3,2,1,1,1,2,2,2,3,1,3,1,3,2,3,1,2,1,1,1,3,2,1,2,2,3,3,1,3,1,3,3,3,2,3,1,1,3,3,2,2,1,1,3,3,4,4,5,5,5,5,5,5,4,4,4,4,4,4,6,6,5,5,6,6,4,4,4,4,5,4,6,6,6,6,6,5,5,6,6,6,4,4,5,5,5,5,5,5,5,4,4,6,4,6,6,6,6,5,5,5,4,4,4,6,6,6,4,4,6,6,6,6,6,5,5,5,5,6,5,5,5,5,4,4,4,4,4,5,5,5,5,5,5,5,5,5,6,5,5,5,4,4,4,4,4,4,4,4,4,5,5,5,5,4,6,6,4,4,4,4,5,6,6,6,4,4,4,4,4,4,4,5,5,5,5,5,5,6,4,4,6,4,4,4,4,4,4,4,6,5,5,4,5,6,6,6,6,6,6,6,6,5,6,4,4,6,6,4,6,5,7,6,8,4,9,6,7,5,7,4,8,5,7,6,7,6,8,4,8,4,9,4,9,4,8,6,7,6,7,4,9,4,9,6,7,4,8,5,7,6,7,5,9,5,9,6,7,5,7,4,9,4,8,5,7,9,9,7,7,9,9,7,7,9,9,9,9,9,9,8,8,7,9,7,8,8,9,8,9,9,8,7,7,7,8,7,7,7,8,7,7,9,8,7,9,7,7,9,7,7,8,9,8,8,7,7,8,8,7,9,7,8,9,9,7,7,7,9,8,7,8,8,8,7,7,7,9,7,7,9,9,9,9,8,9,9,8,8,9,9,9,7,9,7,7,9,9,7,7,9,9,8,8,9,9,8,9,8,9,9,7,9,7,9,9,7,7,9,9,8,8,7,7,8,8,8,9,9,9,9,9,9,7,9,7,9,7,9,8,9,8,8,8,8,9,8,9,8,8,7,9,9,9,7,7,7,8,7,7,7,7,8,9,8,8,9,7,7,9,7];

processingTimes = [120,144,136,104,136,72,80,136,120,144,104,160,104,136,104,160,112,168,96,136,120,136,104,128,168,128,104,104,104,88,104,112,120,80,136,80,104,152,128,104,144,88,128,136,128,128,72,80,136,128,160,112,48,48,104,136,152,168,72,120,96,152,104,88,80,112,112,128,96,136,128,168,104,104,136,136,152,104,112,128,112,104,136,136,112,168,80,128,120,88,120,136,112,120,136,120,128,96,88,40,3,4,1000,4,4,4,4,4,3,3,1000,4,4,4,3,3,4,1000,4,4,8,3,3,4,4,3,4,3,3,4,3,1000,1000,5,5,4,4,23,4,4,3,3,3,3,3,5,1000,3,1000,4,1000,4,4,4,4,4,4,3,3,5,4,3,4,13,3,3,1000,8,4,4,200,3,5,3,3,3,1000,3,3,8,4,4,4,4,3,3,4,4,1000,3,1000,3,3,1000,4,1000,4,3,1000,4,8,1000,3,3,3,3,3,3,3,1000,4,4,4,4,5,5,5,4,1000,1000,1000,1000,1000,6,3,3,1000,1000,3,3,1000,3,1000,1000,4,4,3,1000,3,3,3,3,3,3,3,4,4,3,3,5,1000,200,4,1000,3,3,3,3,4,3,3,4,1000,4,3,4,4,4,4,5,5,4,4,6,6,3,3,3,3,4,4,3,3,5,5,3,3,3,3,4,4,4,4,4,4,4,4,23,23,4,4,3,3,3,3,3,3,3,3,4,4,3,3,7,7,3,3,1000,1000,5,5,3,4,1000,4,4,4,4,4,3,3,1000,4,4,4,3,3,4,1000,4,4,8,3,3,4,4,3,4,3,3,4,3,1000,1000,5,5,4,4,23,4,4,3,3,3,3,3,5,1000,3,1000,4,1000,4,4,4,4,4,4,3,3,5,4,3,4,13,3,3,1000,8,4,4,200,3,5,3,3,3,1000,3,3,8,4,4,4,4,3,3,4,4,1000,3,1000,3,3,1000,4,1000,4,3,1000,4,8,1000,3,3,3,3,3,3,3,1000,4,4,4,4,5,5,5,4,1000,1000,1000,1000,1000,6,3,3,1000,1000,3,3,1000,3,1000,1000,4,4,3,1000,3,3,3,3,3,3,3,4,4,3,3,5,1000,200,4,1000,3,3,3,3,4,3,3,4,1000,4,3];

periods = [20000,100000,10000,10000,10000,10000,20000,5000,10000,100000,50000,10000,10000,20000,20000,20000,10000,100000,20000,20000,20000,20000,100000,100000,10000,20000,5000,100000,20000,100000,10000,20000,5000,2000,20000,20000,20000,10000,10000,100000,20000,10000,10000,100000,100000,100000,100000,50000,20000,10000,20000,10000,20000,10000,10000,10000,10000,10000,20000,10000,50000,10000,20000,100000,20000,100000,20000,10000,10000,20000,20000,5000,100000,10000,20000,10000,20000,10000,100000,10000,20000,20000,10000,100000,100000,2000,100000,10000,20000,20000,10000,100000,100000,20000,20000,10000,10000,2000,20000,10000,20000,20000,10000,10000,10000,10000,10000,10000,10000,10000,10000,10000,10000,10000,10000,10000,10000,10000,20000,20000,5000,5000,5000,5000,10000,100000,50000,50000,50000,10000,10000,10000,10000,20000,20000,20000,20000,20000,20000,10000,10000,10000,10000,20000,20000,20000,20000,20000,20000,100000,10000,10000,10000,5000,5000,5000,100000,20000,20000,100000,100000,100000,10000,10000,20000,20000,20000,5000,5000,2000,2000,2000,2000,20000,20000,20000,20000,20000,20000,20000,20000,20000,20000,10000,10000,10000,10000,100000,100000,10000,10000,10000,10000,100000,100000,100000,100000,100000,100000,100000,100000,50000,50000,50000,20000,10000,10000,10000,10000,20000,10000,10000,20000,20000,20000,10000,10000,10000,10000,10000,10000,10000,20000,10000,10000,10000,10000,50000,50000,50000,20000,20000,20000,100000,20000,20000,10000,20000,20000,20000,20000,20000,20000,20000,10000,20000,20000,10000,100000,20000,100000,2000,100000,100000,100000,10000,10000,20000,20000,10000,10000,100000,20000,2000,10000,20000,20000,20000,20000,20000,20000,20000,20000,20000,20000,20000,20000,20000,20000,20000,20000,20000,20000,20000,20000,20000,20000,20000,20000,20000,20000,100000,100000,100000,100000,100000,100000,100000,100000,100000,100000,100000,100000,100000,100000,100000,100000,100000,100000,100000,100000,20000,20000,2000,2000,2000,2000,10000,10000,10000,10000,20000,20000,10000,10000,10000,10000,10000,10000,10000,10000,10000,10000,10000,10000,10000,10000,10000,10000,20000,20000,5000,5000,5000,5000,10000,100000,50000,50000,50000,10000,10000,10000,10000,20000,20000,20000,20000,20000,20000,10000,10000,10000,10000,20000,20000,20000,20000,20000,20000,100000,10000,10000,10000,5000,5000,5000,100000,20000,20000,100000,100000,100000,10000,10000,20000,20000,20000,5000,5000,2000,2000,2000,2000,20000,20000,20000,20000,20000,20000,20000,20000,20000,20000,10000,10000,10000,10000,100000,100000,10000,10000,10000,10000,100000,100000,100000,100000,100000,100000,100000,100000,50000,50000,50000,20000,10000,10000,10000,10000,20000,10000,10000,20000,20000,20000,10000,10000,10000,10000,10000,10000,10000,20000,10000,10000,10000,10000,50000,50000,50000,20000,20000,20000,100000,20000,20000,10000,20000,20000,20000,20000,20000,20000,20000,10000,20000,20000,10000,100000,20000,100000,2000,100000,100000,100000,10000,10000,20000,20000,10000,10000,100000,20000,2000,10000];

assignmentToClusters = [1,2,3,4,5,6,1,7,8,9,10,11,12,1,13,1,14,15,1,16,17,18,15,9,19,20,21,22,23,24,25,26,27,28,1,29,30,31,32,33,34,35,36,9,15,37,38,39,1,40,41,42,43,44,45,46,47,47,1,48,49,50,1,15,1,9,51,52,47,16,53,54,55,56,1,57,1,58,15,59,60,61,62,63,15,28,9,64,65,1,66,15,9,1,1,67,59,28,68,69,70,71,72,73,74,75,76,77,78,79,80,81,82,83,84,85,86,87,88,89,90,91,92,93,94,95,96,97,98,99,100,101,102,103,104,105,106,107,108,109,110,111,112,113,114,115,116,117,118,119,120,121,122,123,124,125,126,127,128,129,130,131,132,133,134,135,136,137,138,139,140,141,142,143,144,145,146,147,148,149,150,151,152,153,154,155,156,157,158,159,160,161,162,163,164,165,166,167,168,169,170,171,172,173,174,175,176,177,178,179,180,181,182,183,184,185,186,187,188,189,190,191,192,193,194,195,196,197,198,199,200,201,202,203,204,205,206,207,208,209,210,211,212,213,214,215,216,217,218,219,220,221,222,223,224,225,226,227,228,229,230,231,232,233,234,1,1,1,1,1,1,1,1,1,1,1,1,1,1,1,1,1,1,1,1,1,1,1,1,1,1,9,9,9,9,9,9,9,9,15,15,15,15,15,15,15,15,15,15,15,15,16,16,28,28,28,28,47,47,59,59,70,71,72,73,74,75,76,77,78,79,80,81,82,83,84,85,86,87,88,89,90,91,92,93,94,95,96,97,98,99,100,101,102,103,104,105,106,107,108,109,110,111,112,113,114,115,116,117,118,119,120,121,122,123,124,125,126,127,128,129,130,131,132,133,134,135,136,137,138,139,140,141,142,143,144,145,146,147,148,149,150,151,152,153,154,155,156,157,158,159,160,161,162,163,164,165,166,167,168,169,170,171,172,173,174,175,176,177,178,179,180,181,182,183,184,185,186,187,188,189,190,191,192,193,194,195,196,197,198,199,200,201,202,203,204,205,206,207,208,209,210,211,212,213,214,215,216,217,218,219,220,221,222,223,224,225,226,227,228,229,230,231,232,233,234];

precedenceAdjList = [[266],[],[],[],[],[],[288],[],[],[292,294],[],[],[],[],[],[290],[],[],[],[312],[],[],[308],[],[],[],[],[],[],[],[],[],[],[],[270],[],[],[],[],[],[],[],[],[9],[302],[],[],[],[74],[],[],[],[],[],[],[],[318],[],[],[],[],[],[276],[310],[272,274],[298],[],[],[56],[],[],[],[],[],[278,280],[],[268],[],[],[],[],[],[],[],[304,306],[316],[],[],[],[],[],[300],[296],[286],[282,284],[],[320],[314],[],[],[],[],[],[],[],[],[],[],[],[],[],[],[],[],[],[],[],[],[],[],[],[],[],[],[],[],[],[],[],[],[],[],[],[],[],[],[],[],[],[],[],[],[],[],[],[],[],[],[],[],[],[],[],[],[],[],[],[],[],[],[],[],[],[],[],[],[],[],[],[],[],[],[],[],[],[],[],[],[],[],[],[],[],[],[],[],[],[],[],[],[],[],[],[],[],[],[],[],[],[],[],[],[],[],[],[],[],[],[],[],[],[],[],[],[],[],[],[],[],[],[],[],[],[],[],[],[],[],[],[],[],[],[],[],[],[],[],[],[],[],[],[],[],[],[],[],[],[],[],[],[],[],[],[],[],[],[],[],[],[],[],[],[],[],[],[76],[265],[34],[267],[64],[269],[13],[271],[62],[273],[74],[275],[18],[277],[89],[279],[93],[281],[48],[283],[58],[285],[64],[287],[64],[289],[92],[291],[86],[293],[23],[295],[43],[297],[17],[299],[91],[301],[44],[303],[22],[305],[78],[307],[44],[309],[69],[311],[33],[313],[97],[315],[57],[317],[79],[319],[100],[101],[102],[103],[104],[105],[106],[107],[108],[109],[110],[111],[112],[113],[114],[115],[116],[117],[118],[119],[120],[121],[122],[123],[124],[125],[126],[127],[128],[129],[130],[131],[132],[133],[134],[135],[136],[137],[138],[139],[140],[141],[142],[143],[144],[145],[146],[147],[148],[149],[150],[151],[152],[153],[154],[155],[156],[157],[158],[159],[160],[161],[162],[163],[164],[165],[166],[167],[168],[169],[170],[171],[172],[173],[174],[175],[176],[177],[178],[179],[180],[181],[182],[183],[184],[185],[186],[187],[188],[189],[190],[191],[192],[193],[194],[195],[196],[197],[198],[199],[200],[201],[202],[203],[204],[205],[206],[207],[208],[209],[210],[211],[212],[213],[214],[215],[216],[217],[218],[219],[220],[221],[222],[223],[224],[225],[226],[227],[228],[229],[230],[231],[232],[233],[234],[235],[236],[237],[238],[239],[240],[241],[242],[243],[244],[245],[246],[247],[248],[249],[250],[251],[252],[253],[254],[255],[256],[257],[258],[259],[260],[261],[262],[263],[264]];